11 5 1
5    1  0 375    1  1 12    1  2 142    1  3 245    1  4 412
5    1  0 632    1  1 452    1  2 758    1  3 278    1  4 398
5    1  0 12    1  1 876    1  2 124    1  3 534    1  4 765
5    1  0 460    1  1 542    1  2 523    1  3 120    1  4 499
5    1  0 528    1  1 101    1  2 789    1  3 124    1  4 999
5    1  0 796    1  1 245    1  2 632    1  3 375    1  4 123
5    1  0 532    1  1 230    1  2 543    1  3 896    1  4 452
5    1  0 14    1  1 124    1  2 214    1  3 543    1  4 785
5    1  0 257    1  1 527    1  2 753    1  3 210    1  4 463
5    1  0 896    1  1 896    1  2 214    1  3 258    1  4 259
5    1  0 532    1  1 302    1  2 501    1  3 765    1  4 988
